(set-logic ALL)
(set-option :produce-models true)
(define-fun-rec str.toLower ((x String)) String
  (ite (= x "")
      ""
      (let ((Head (str.at x 0)))
        (str.++ 
          (ite (and (<= 65 (str.to_code Head)) 
                     (<= (str.to_code Head) 90))
               (str.from_code (+ (str.to_code Head) 32))
               Head)
          (str.toLower (str.substr x 1 (- (str.len x) 1)))))))
(declare-fun sym252 () String)
(declare-fun sym374 () String)
(declare-fun sym122 () String)
(declare-fun sym523 () String)
(declare-fun sym637 () String)
(declare-fun sym283 () String)

(assert (= (str.toLower sym252 )"/restart" ))
(assert (not (= (str.toLower sym637 )"/restart" )))
(assert (not (= (str.toLower sym374 )"n" )))
(assert (not (= (str.toLower sym523 )"y" )))
(assert (not (= (str.toLower sym122 )"middle school" )))
(assert (not (= (str.toLower sym523 )"/help" )))
(assert (not (= (str.toLower sym374 )"y" )))
(assert (not (= (str.toLower sym374 )"/restart" )))
(assert (not (= (str.toLower sym374 )"/quit" )))
(assert (not (= (str.toLower sym252 )"y" )))
(assert (not (= (str.toLower sym374 )"/help" )))
(assert (not (= (str.toLower sym523 )"/restart" )))
(assert (not (= (str.toLower sym637 )"/clear" )))
(assert (not (str.contains (str.toLower sym637 )"/setfont" )))
(assert (not (= (str.toLower sym523 )"/clear" )))
(assert (not (= (str.toLower sym283 )"middle school" )))
(assert (= (str.toLower sym283 )"high school" ))
(assert (= (str.toLower sym122 )"high school" ))
(assert (not (str.contains (str.toLower sym637 )"/setsize" )))
(assert (not (str.contains (str.toLower sym523 )"/say" )))
(assert (not (= (str.toLower sym637 )"/help" )))
(assert (not (str.contains (str.toLower sym374 )"/setsize" )))
(assert (not (str.contains (str.toLower sym374 )"/say" )))
(assert (not (str.contains (str.toLower sym523 )"/setsize" )))
(assert (not (= (str.toLower sym637 )"/?" )))
(assert (not (= (str.toLower sym374 )"/?" )))
(assert (not (= (str.toLower sym523 )"n" )))
(assert (not (= (str.toLower sym637 )"n" )))
(assert (not (str.contains (str.toLower sym374 )"/setfont" )))
(assert (not (str.contains (str.toLower sym637 )"/say" )))
(assert (not (= (str.toLower sym374 )"/clear" )))
(assert (not (= (str.toLower sym122 )"elementary" )))
(assert (not (= (str.toLower sym637 )"/quit" )))
(assert (not (str.contains (str.toLower sym523 )"/setfont" )))
(assert (not (= (str.toLower sym523 )"/quit" )))
(assert (not (= (str.toLower sym283 )"elementary" )))
(assert (not (= (str.toLower sym523 )"/?" )))
(assert (not (= (str.toLower sym637 )"y" )))
(check-sat)
(get-model)
(exit)
